NAME : X_18_seed_123_id_11
TYPE : CVRP
DIMENSION : 181
EDGE_WEIGHT_TYPE : EUC_2D
CAPACITY : 8
NODE_COORD_SECTION
1	755	761
2	30	104
3	642	976
4	839	631
5	409	481
6	24	728
7	440	867
8	57	711
9	835	560
10	136	726
11	22	729
12	388	872
13	461	785
14	68	769
15	597	377
16	421	599
17	636	943
18	663	961
19	53	131
20	419	869
21	396	292
22	618	310
23	437	449
24	238	212
25	30	85
26	414	534
27	709	926
28	680	997
29	382	425
30	476	805
31	512	805
32	922	639
33	93	717
34	374	470
35	280	770
36	805	758
37	439	456
38	448	799
39	498	463
40	79	723
41	459	863
42	865	787
43	836	632
44	455	855
45	25	24
46	500	893
47	430	859
48	69	20
49	405	515
50	432	834
51	41	688
52	403	457
53	114	628
54	474	922
55	693	995
56	23	758
57	852	618
58	885	730
59	406	488
60	51	729
61	428	813
62	336	468
63	7	713
64	414	446
65	19	170
66	652	859
67	403	433
68	20	793
69	646	930
70	33	92
71	292	385
72	382	835
73	421	827
74	108	680
75	453	433
76	342	764
77	111	107
78	50	77
79	849	664
80	446	842
81	429	885
82	776	598
83	580	907
84	99	111
85	894	808
86	488	552
87	423	452
88	534	851
89	425	465
90	871	611
91	356	726
92	57	42
93	420	760
94	576	652
95	386	886
96	493	845
97	2	31
98	25	123
99	35	68
100	714	958
101	448	834
102	0	748
103	716	913
104	72	182
105	715	604
106	811	668
107	17	758
108	845	640
109	894	623
110	471	871
111	21	72
112	693	986
113	665	963
114	448	460
115	630	978
116	3	179
117	773	719
118	405	841
119	48	147
120	11	719
121	29	272
122	312	466
123	484	810
124	607	955
125	56	56
126	12	125
127	848	627
128	818	609
129	405	426
130	836	671
131	759	519
132	38	702
133	80	730
134	76	66
135	611	925
136	490	957
137	65	691
138	30	73
139	103	751
140	347	558
141	460	861
142	469	494
143	410	855
144	828	711
145	699	946
146	850	662
147	477	893
148	498	522
149	430	500
150	467	891
151	714	853
152	775	588
153	651	937
154	786	581
155	678	983
156	824	616
157	63	846
158	33	48
159	953	747
160	59	727
161	398	909
162	4	726
163	16	642
164	659	955
165	693	606
166	624	945
167	411	380
168	60	753
169	780	697
170	803	948
171	195	161
172	894	595
173	742	649
174	465	753
175	684	964
176	795	750
177	415	865
178	806	539
179	55	781
180	829	570
181	80	569
DEMAND_SECTION
1	0
2	1
3	1
4	1
5	1
6	1
7	1
8	1
9	1
10	1
11	1
12	1
13	1
14	1
15	1
16	1
17	1
18	1
19	1
20	1
21	1
22	1
23	1
24	1
25	1
26	1
27	1
28	1
29	1
30	1
31	1
32	1
33	1
34	1
35	1
36	1
37	1
38	1
39	1
40	1
41	1
42	1
43	1
44	1
45	1
46	1
47	1
48	1
49	1
50	1
51	1
52	1
53	1
54	1
55	1
56	1
57	1
58	1
59	1
60	1
61	1
62	1
63	1
64	1
65	1
66	1
67	1
68	1
69	1
70	1
71	1
72	1
73	1
74	1
75	1
76	1
77	1
78	1
79	1
80	1
81	1
82	1
83	1
84	1
85	1
86	1
87	1
88	1
89	1
90	1
91	1
92	1
93	1
94	1
95	1
96	1
97	1
98	1
99	1
100	1
101	1
102	1
103	1
104	1
105	1
106	1
107	1
108	1
109	1
110	1
111	1
112	1
113	1
114	1
115	1
116	1
117	1
118	1
119	1
120	1
121	1
122	1
123	1
124	1
125	1
126	1
127	1
128	1
129	1
130	1
131	1
132	1
133	1
134	1
135	1
136	1
137	1
138	1
139	1
140	1
141	1
142	1
143	1
144	1
145	1
146	1
147	1
148	1
149	1
150	1
151	1
152	1
153	1
154	1
155	1
156	1
157	1
158	1
159	1
160	1
161	1
162	1
163	1
164	1
165	1
166	1
167	1
168	1
169	1
170	1
171	1
172	1
173	1
174	1
175	1
176	1
177	1
178	1
179	1
180	1
181	1
DEPOT_SECTION
1
-1
EOF
